CapLotSizing_PM/src/Instancias/NCHSLT/6i12p4m/NBB06.OUT
 CG ITER, OVMR, OVMRUB =           1   38337.1757812   23784.3066406
 CG ITER, OVMR, OVMRUB =           2   25767.7597656   23784.3066406
 CG ITER, OVMR, OVMRUB =           3   25767.7597656   23784.3066406
 CG ITER, OVMR, OVMRUB =           4   25767.7597656   23784.3066406
 CG ITER, OVMR, OVMRUB =           5   25767.7597656   23784.3066406
 CG ITER, OVMR, OVMRUB =           6   25767.7597656   23784.3066406
 CG ITER, OVMR, OVMRUB =           7   25767.7597656   23784.3066406
 CG ITER, OVMR, OVMRUB =           8   25767.7597656   23784.3066406
 CG ITER, OVMR, OVMRUB =           9   25767.7597656   23784.3066406
 CG ITER, OVMR, OVMRUB =          10   25767.7597656   23784.3066406
OVLB =   25767.7597656 OVLUB =   23784.3066406 TIME =       0.3100000
